10
0,34,21,5,18,7,34,11,4,19
34,0,35,37,37,28,17,45,16,46
21,35,0,46,42,41,8,1,36,32
5,37,46,0,30,14,1,23,48,40
18,37,42,30,0,35,48,21,50,43
7,28,41,14,35,0,2,23,10,1
34,17,8,1,48,2,0,6,11,12
11,45,1,23,21,23,6,0,39,28
4,16,36,48,50,10,11,39,0,7
19,46,32,40,43,1,12,28,7,0